c File: data_files/evolved_graphs/g3627.col
c
c Auto generated graph
c
p edge 100 1713
e 1 6
e 1 8
e 1 12
e 1 16
e 1 17
e 1 18
e 1 21
e 1 22
e 1 24
e 1 25
e 1 26
e 1 28
e 1 30
e 1 32
e 1 33
e 1 34
e 1 36
e 1 40
e 1 42
e 1 43
e 1 47
e 1 65
e 1 90
e 2 6
e 2 7
e 2 8
e 2 15
e 2 16
e 2 19
e 2 20
e 2 24
e 2 25
e 2 26
e 2 28
e 2 29
e 2 30
e 2 31
e 2 37
e 2 38
e 2 39
e 2 40
e 2 41
e 2 42
e 2 45
e 2 50
e 2 78
e 2 83
e 2 88
e 3 5
e 3 6
e 3 9
e 3 13
e 3 14
e 3 15
e 3 16
e 3 17
e 3 18
e 3 22
e 3 23
e 3 24
e 3 27
e 3 35
e 3 37
e 3 48
e 3 67
e 4 19
e 4 20
e 4 29
e 4 46
e 5 7
e 5 18
e 5 20
e 5 26
e 5 28
e 5 32
e 5 33
e 5 34
e 5 35
e 5 38
e 5 42
e 5 44
e 5 46
e 5 47
e 5 48
e 5 49
e 5 50
e 5 51
e 5 52
e 5 54
e 5 55
e 5 57
e 5 58
e 5 59
e 5 60
e 5 61
e 5 62
e 5 66
e 5 69
e 5 70
e 5 72
e 5 73
e 5 74
e 5 75
e 5 76
e 5 79
e 5 82
e 5 85
e 5 86
e 5 87
e 5 89
e 5 90
e 5 91
e 5 92
e 5 93
e 5 94
e 5 95
e 5 96
e 5 98
e 5 99
e 5 100
e 6 13
e 6 16
e 6 18
e 6 22
e 6 27
e 6 29
e 6 32
e 6 33
e 6 35
e 6 36
e 6 39
e 6 40
e 6 42
e 6 43
e 6 44
e 6 45
e 6 47
e 6 49
e 6 50
e 6 51
e 6 52
e 6 53
e 6 54
e 6 56
e 6 58
e 6 59
e 6 60
e 6 62
e 6 63
e 6 64
e 6 65
e 6 66
e 6 67
e 6 68
e 6 69
e 6 70
e 6 72
e 6 73
e 6 74
e 6 75
e 6 77
e 6 79
e 6 80
e 6 87
e 6 88
e 6 89
e 6 90
e 6 93
e 6 95
e 6 96
e 6 97
e 6 99
e 7 12
e 7 20
e 7 23
e 7 24
e 7 25
e 7 28
e 7 33
e 7 34
e 7 35
e 7 36
e 7 37
e 7 39
e 7 41
e 7 42
e 7 47
e 7 49
e 7 51
e 7 53
e 7 55
e 7 56
e 7 59
e 7 60
e 7 61
e 7 62
e 7 63
e 7 64
e 7 66
e 7 68
e 7 69
e 7 70
e 7 72
e 7 78
e 7 81
e 7 82
e 7 83
e 7 84
e 7 85
e 7 86
e 7 89
e 7 90
e 7 91
e 7 92
e 7 93
e 7 95
e 7 97
e 7 98
e 7 99
e 8 10
e 8 12
e 8 14
e 8 20
e 8 23
e 8 25
e 8 28
e 8 30
e 8 32
e 8 34
e 8 35
e 8 36
e 8 37
e 8 39
e 8 40
e 8 41
e 8 42
e 8 44
e 8 46
e 8 47
e 8 49
e 8 50
e 8 51
e 8 54
e 8 55
e 8 56
e 8 57
e 8 58
e 8 62
e 8 65
e 8 66
e 8 68
e 8 70
e 8 76
e 8 77
e 8 79
e 8 81
e 8 82
e 8 83
e 8 86
e 8 90
e 8 91
e 8 98
e 8 99
e 9 13
e 9 16
e 9 33
e 9 34
e 9 35
e 9 37
e 9 38
e 9 40
e 9 41
e 9 42
e 9 43
e 9 44
e 9 45
e 9 47
e 9 51
e 9 52
e 9 53
e 9 54
e 9 55
e 9 56
e 9 59
e 9 60
e 9 61
e 9 69
e 9 71
e 9 74
e 9 76
e 9 77
e 9 78
e 9 81
e 9 82
e 9 83
e 9 84
e 9 85
e 9 86
e 9 87
e 9 89
e 9 92
e 9 93
e 9 94
e 9 95
e 9 96
e 9 97
e 9 100
e 10 18
e 10 22
e 10 33
e 10 34
e 10 38
e 10 39
e 10 40
e 10 41
e 10 42
e 10 43
e 10 46
e 10 48
e 10 50
e 10 51
e 10 52
e 10 55
e 10 56
e 10 58
e 10 59
e 10 60
e 10 62
e 10 63
e 10 65
e 10 66
e 10 67
e 10 70
e 10 71
e 10 73
e 10 75
e 10 76
e 10 79
e 10 80
e 10 82
e 10 83
e 10 84
e 10 85
e 10 87
e 10 89
e 10 90
e 10 93
e 10 94
e 10 96
e 10 97
e 10 98
e 10 99
e 11 16
e 11 21
e 11 25
e 11 33
e 11 37
e 11 38
e 11 39
e 11 40
e 11 41
e 11 44
e 11 45
e 11 49
e 11 53
e 11 56
e 11 61
e 11 63
e 11 64
e 11 66
e 11 67
e 11 68
e 11 69
e 11 70
e 11 75
e 11 76
e 11 78
e 11 80
e 11 81
e 11 82
e 11 83
e 11 84
e 11 85
e 11 86
e 11 88
e 11 93
e 11 95
e 11 96
e 11 97
e 11 98
e 11 100
e 12 34
e 12 35
e 12 37
e 12 39
e 12 42
e 12 43
e 12 49
e 12 50
e 12 51
e 12 52
e 12 53
e 12 55
e 12 60
e 12 61
e 12 63
e 12 64
e 12 65
e 12 67
e 12 68
e 12 70
e 12 71
e 12 74
e 12 75
e 12 76
e 12 77
e 12 79
e 12 81
e 12 82
e 12 83
e 12 84
e 12 85
e 12 86
e 12 87
e 12 89
e 12 90
e 12 91
e 12 92
e 12 93
e 12 94
e 12 96
e 12 97
e 12 99
e 12 100
e 13 14
e 13 20
e 13 21
e 13 34
e 13 36
e 13 37
e 13 38
e 13 40
e 13 44
e 13 45
e 13 46
e 13 47
e 13 50
e 13 51
e 13 52
e 13 55
e 13 56
e 13 57
e 13 60
e 13 61
e 13 62
e 13 63
e 13 64
e 13 66
e 13 67
e 13 69
e 13 71
e 13 73
e 13 74
e 13 75
e 13 76
e 13 78
e 13 79
e 13 83
e 13 85
e 13 86
e 13 90
e 13 91
e 13 92
e 13 94
e 13 95
e 13 97
e 14 18
e 14 20
e 14 32
e 14 33
e 14 36
e 14 39
e 14 40
e 14 41
e 14 42
e 14 43
e 14 44
e 14 46
e 14 48
e 14 50
e 14 52
e 14 53
e 14 54
e 14 57
e 14 58
e 14 60
e 14 61
e 14 62
e 14 64
e 14 65
e 14 67
e 14 70
e 14 71
e 14 72
e 14 74
e 14 75
e 14 77
e 14 78
e 14 79
e 14 80
e 14 81
e 14 82
e 14 84
e 14 85
e 14 86
e 14 87
e 14 92
e 14 93
e 14 94
e 14 95
e 14 96
e 14 97
e 14 99
e 14 100
e 15 20
e 15 30
e 15 32
e 15 33
e 15 34
e 15 36
e 15 37
e 15 38
e 15 40
e 15 41
e 15 42
e 15 44
e 15 46
e 15 47
e 15 50
e 15 51
e 15 52
e 15 53
e 15 55
e 15 56
e 15 58
e 15 59
e 15 61
e 15 62
e 15 63
e 15 64
e 15 65
e 15 66
e 15 67
e 15 69
e 15 71
e 15 74
e 15 75
e 15 76
e 15 77
e 15 79
e 15 81
e 15 82
e 15 83
e 15 84
e 15 85
e 15 86
e 15 87
e 15 88
e 15 90
e 15 91
e 15 92
e 15 93
e 15 96
e 15 97
e 15 98
e 16 17
e 16 21
e 16 23
e 16 25
e 16 28
e 16 32
e 16 33
e 16 35
e 16 39
e 16 41
e 16 42
e 16 44
e 16 45
e 16 46
e 16 47
e 16 48
e 16 51
e 16 53
e 16 55
e 16 56
e 16 57
e 16 58
e 16 59
e 16 60
e 16 62
e 16 63
e 16 64
e 16 65
e 16 69
e 16 71
e 16 73
e 16 74
e 16 75
e 16 76
e 16 79
e 16 83
e 16 84
e 16 87
e 16 89
e 16 93
e 16 94
e 16 95
e 16 97
e 16 98
e 16 99
e 16 100
e 17 20
e 17 21
e 17 27
e 17 28
e 17 30
e 17 32
e 17 33
e 17 35
e 17 36
e 17 37
e 17 38
e 17 39
e 17 40
e 17 41
e 17 43
e 17 44
e 17 45
e 17 46
e 17 48
e 17 49
e 17 52
e 17 53
e 17 54
e 17 56
e 17 57
e 17 59
e 17 63
e 17 64
e 17 65
e 17 66
e 17 67
e 17 69
e 17 70
e 17 73
e 17 74
e 17 76
e 17 77
e 17 79
e 17 82
e 17 84
e 17 85
e 17 86
e 17 88
e 17 90
e 17 91
e 17 92
e 17 94
e 17 95
e 17 100
e 18 21
e 18 23
e 18 26
e 18 32
e 18 33
e 18 34
e 18 35
e 18 37
e 18 38
e 18 39
e 18 40
e 18 41
e 18 42
e 18 43
e 18 44
e 18 45
e 18 47
e 18 48
e 18 52
e 18 54
e 18 56
e 18 57
e 18 60
e 18 61
e 18 62
e 18 66
e 18 68
e 18 69
e 18 70
e 18 73
e 18 74
e 18 75
e 18 76
e 18 78
e 18 80
e 18 81
e 18 82
e 18 83
e 18 85
e 18 86
e 18 87
e 18 88
e 18 89
e 18 90
e 18 91
e 18 92
e 18 93
e 18 94
e 18 95
e 18 96
e 18 97
e 18 98
e 18 99
e 19 22
e 19 25
e 19 32
e 19 34
e 19 35
e 19 37
e 19 38
e 19 41
e 19 42
e 19 44
e 19 45
e 19 47
e 19 48
e 19 49
e 19 53
e 19 54
e 19 55
e 19 56
e 19 57
e 19 58
e 19 59
e 19 60
e 19 61
e 19 63
e 19 66
e 19 68
e 19 69
e 19 70
e 19 78
e 19 79
e 19 82
e 19 83
e 19 86
e 19 87
e 19 88
e 19 89
e 19 91
e 19 92
e 19 93
e 19 94
e 19 95
e 19 98
e 20 26
e 20 31
e 20 32
e 20 33
e 20 34
e 20 35
e 20 38
e 20 40
e 20 43
e 20 44
e 20 46
e 20 48
e 20 49
e 20 50
e 20 52
e 20 54
e 20 57
e 20 60
e 20 61
e 20 62
e 20 65
e 20 66
e 20 69
e 20 70
e 20 71
e 20 72
e 20 73
e 20 75
e 20 77
e 20 80
e 20 82
e 20 84
e 20 92
e 20 93
e 20 95
e 20 97
e 20 98
e 20 99
e 20 100
e 21 25
e 21 32
e 21 33
e 21 34
e 21 36
e 21 37
e 21 39
e 21 41
e 21 43
e 21 44
e 21 45
e 21 46
e 21 47
e 21 48
e 21 49
e 21 50
e 21 51
e 21 53
e 21 54
e 21 56
e 21 58
e 21 59
e 21 60
e 21 62
e 21 63
e 21 64
e 21 67
e 21 69
e 21 70
e 21 71
e 21 72
e 21 73
e 21 74
e 21 75
e 21 76
e 21 77
e 21 78
e 21 79
e 21 81
e 21 82
e 21 84
e 21 86
e 21 87
e 21 89
e 21 92
e 21 94
e 21 96
e 21 97
e 21 98
e 21 99
e 22 30
e 22 31
e 22 32
e 22 33
e 22 35
e 22 36
e 22 37
e 22 38
e 22 39
e 22 40
e 22 41
e 22 42
e 22 43
e 22 46
e 22 48
e 22 51
e 22 54
e 22 55
e 22 59
e 22 60
e 22 62
e 22 63
e 22 66
e 22 67
e 22 69
e 22 70
e 22 71
e 22 73
e 22 74
e 22 75
e 22 76
e 22 81
e 22 82
e 22 83
e 22 84
e 22 85
e 22 88
e 22 93
e 22 94
e 22 95
e 22 97
e 22 98
e 22 100
e 23 27
e 23 32
e 23 34
e 23 35
e 23 36
e 23 37
e 23 38
e 23 40
e 23 41
e 23 43
e 23 44
e 23 45
e 23 47
e 23 48
e 23 49
e 23 50
e 23 56
e 23 57
e 23 58
e 23 59
e 23 61
e 23 62
e 23 63
e 23 68
e 23 69
e 23 70
e 23 72
e 23 73
e 23 75
e 23 76
e 23 77
e 23 79
e 23 82
e 23 83
e 23 84
e 23 85
e 23 88
e 23 92
e 23 93
e 23 94
e 23 95
e 23 96
e 23 97
e 23 100
e 24 25
e 24 29
e 24 31
e 24 32
e 24 33
e 24 34
e 24 35
e 24 36
e 24 37
e 24 38
e 24 39
e 24 42
e 24 43
e 24 45
e 24 49
e 24 50
e 24 52
e 24 53
e 24 56
e 24 58
e 24 59
e 24 66
e 24 67
e 24 71
e 24 72
e 24 75
e 24 76
e 24 78
e 24 79
e 24 80
e 24 81
e 24 83
e 24 84
e 24 85
e 24 86
e 24 87
e 24 89
e 24 90
e 24 91
e 24 92
e 24 94
e 24 96
e 24 99
e 25 29
e 25 32
e 25 33
e 25 34
e 25 36
e 25 37
e 25 38
e 25 39
e 25 40
e 25 43
e 25 44
e 25 45
e 25 46
e 25 48
e 25 49
e 25 50
e 25 53
e 25 56
e 25 61
e 25 62
e 25 63
e 25 64
e 25 65
e 25 68
e 25 70
e 25 74
e 25 75
e 25 77
e 25 79
e 25 80
e 25 81
e 25 83
e 25 84
e 25 85
e 25 87
e 25 91
e 25 92
e 25 93
e 25 94
e 25 96
e 25 98
e 25 99
e 25 100
e 26 27
e 26 32
e 26 34
e 26 36
e 26 38
e 26 39
e 26 41
e 26 42
e 26 43
e 26 44
e 26 45
e 26 47
e 26 48
e 26 49
e 26 51
e 26 52
e 26 53
e 26 54
e 26 57
e 26 58
e 26 59
e 26 63
e 26 64
e 26 66
e 26 67
e 26 68
e 26 69
e 26 70
e 26 71
e 26 73
e 26 74
e 26 76
e 26 77
e 26 78
e 26 83
e 26 85
e 26 86
e 26 87
e 26 88
e 26 94
e 26 96
e 26 99
e 27 28
e 27 30
e 27 32
e 27 34
e 27 35
e 27 36
e 27 37
e 27 38
e 27 39
e 27 43
e 27 44
e 27 45
e 27 46
e 27 47
e 27 48
e 27 49
e 27 51
e 27 52
e 27 53
e 27 55
e 27 56
e 27 57
e 27 58
e 27 59
e 27 62
e 27 64
e 27 65
e 27 66
e 27 70
e 27 71
e 27 76
e 27 79
e 27 81
e 27 83
e 27 86
e 27 88
e 27 89
e 27 90
e 27 91
e 27 93
e 27 94
e 27 95
e 27 96
e 27 98
e 27 99
e 28 29
e 28 31
e 28 34
e 28 35
e 28 37
e 28 38
e 28 39
e 28 40
e 28 44
e 28 45
e 28 46
e 28 47
e 28 48
e 28 49
e 28 50
e 28 51
e 28 52
e 28 53
e 28 57
e 28 59
e 28 60
e 28 61
e 28 62
e 28 63
e 28 64
e 28 65
e 28 66
e 28 67
e 28 68
e 28 71
e 28 72
e 28 73
e 28 75
e 28 78
e 28 80
e 28 82
e 28 84
e 28 86
e 28 88
e 28 89
e 28 93
e 28 94
e 28 95
e 28 96
e 28 99
e 29 32
e 29 33
e 29 37
e 29 38
e 29 40
e 29 41
e 29 42
e 29 43
e 29 45
e 29 47
e 29 48
e 29 49
e 29 50
e 29 52
e 29 53
e 29 56
e 29 58
e 29 59
e 29 60
e 29 62
e 29 63
e 29 64
e 29 65
e 29 66
e 29 67
e 29 68
e 29 70
e 29 71
e 29 74
e 29 75
e 29 78
e 29 80
e 29 81
e 29 82
e 29 85
e 29 86
e 29 87
e 29 88
e 29 89
e 29 90
e 29 93
e 29 94
e 29 95
e 29 96
e 29 98
e 29 99
e 29 100
e 30 38
e 30 40
e 30 42
e 30 45
e 30 46
e 30 47
e 30 50
e 30 51
e 30 53
e 30 54
e 30 56
e 30 57
e 30 60
e 30 61
e 30 63
e 30 64
e 30 65
e 30 66
e 30 67
e 30 69
e 30 70
e 30 72
e 30 73
e 30 74
e 30 75
e 30 76
e 30 77
e 30 79
e 30 82
e 30 83
e 30 84
e 30 85
e 30 86
e 30 88
e 30 89
e 30 90
e 30 91
e 30 93
e 30 95
e 30 96
e 30 99
e 31 32
e 31 33
e 31 34
e 31 37
e 31 38
e 31 39
e 31 40
e 31 41
e 31 42
e 31 43
e 31 44
e 31 45
e 31 46
e 31 47
e 31 49
e 31 51
e 31 52
e 31 53
e 31 54
e 31 57
e 31 58
e 31 59
e 31 60
e 31 62
e 31 63
e 31 64
e 31 65
e 31 67
e 31 68
e 31 70
e 31 71
e 31 72
e 31 73
e 31 74
e 31 75
e 31 78
e 31 79
e 31 80
e 31 81
e 31 82
e 31 83
e 31 84
e 31 85
e 31 86
e 31 87
e 31 89
e 31 90
e 31 91
e 31 92
e 31 93
e 31 94
e 31 95
e 31 97
e 31 98
e 31 99
e 31 100
e 32 39
e 32 50
e 32 52
e 32 54
e 32 55
e 32 59
e 32 70
e 32 71
e 32 76
e 32 87
e 32 89
e 32 91
e 32 98
e 33 34
e 33 39
e 33 40
e 33 50
e 33 51
e 33 54
e 33 64
e 33 68
e 33 91
e 33 94
e 34 35
e 34 45
e 34 46
e 34 53
e 34 58
e 34 59
e 34 61
e 34 62
e 34 65
e 34 66
e 34 68
e 34 69
e 34 74
e 34 76
e 34 77
e 34 79
e 34 80
e 34 88
e 34 90
e 34 91
e 34 96
e 35 50
e 35 62
e 35 64
e 35 65
e 35 71
e 35 73
e 35 78
e 35 82
e 35 91
e 35 96
e 35 98
e 36 40
e 36 44
e 36 46
e 36 51
e 36 55
e 36 58
e 36 61
e 36 63
e 36 79
e 36 86
e 36 97
e 36 98
e 37 40
e 37 44
e 37 65
e 37 71
e 37 88
e 37 92
e 37 98
e 37 99
e 38 43
e 38 45
e 38 58
e 38 60
e 38 61
e 38 63
e 38 64
e 38 69
e 38 85
e 38 90
e 38 94
e 38 95
e 39 40
e 39 42
e 39 60
e 39 63
e 39 80
e 39 82
e 39 83
e 40 49
e 40 56
e 40 59
e 40 70
e 40 76
e 40 88
e 40 92
e 40 94
e 41 44
e 41 49
e 41 52
e 41 57
e 41 67
e 41 70
e 41 71
e 41 78
e 41 83
e 41 90
e 41 93
e 41 96
e 41 98
e 42 49
e 42 50
e 42 78
e 42 79
e 42 92
e 43 55
e 43 65
e 43 68
e 43 69
e 43 81
e 43 82
e 43 84
e 43 88
e 43 97
e 43 99
e 44 57
e 44 65
e 44 70
e 44 75
e 44 82
e 44 84
e 44 91
e 44 94
e 44 100
e 45 48
e 45 63
e 45 68
e 45 76
e 45 78
e 45 84
e 45 94
e 46 47
e 46 48
e 46 58
e 46 62
e 46 63
e 46 71
e 46 72
e 46 74
e 46 85
e 46 88
e 46 91
e 46 100
e 47 51
e 47 57
e 47 63
e 47 72
e 47 75
e 47 86
e 47 90
e 47 91
e 47 93
e 47 96
e 47 99
e 48 54
e 48 59
e 48 67
e 48 71
e 48 75
e 48 93
e 49 50
e 49 54
e 49 58
e 49 61
e 49 66
e 49 75
e 49 86
e 49 95
e 49 97
e 50 52
e 50 63
e 50 73
e 50 82
e 50 83
e 50 84
e 50 86
e 50 97
e 50 99
e 51 53
e 51 58
e 51 60
e 51 72
e 51 73
e 51 81
e 51 88
e 51 90
e 51 95
e 51 96
e 51 99
e 52 53
e 52 62
e 52 65
e 52 68
e 52 71
e 52 72
e 52 80
e 52 81
e 52 82
e 52 87
e 52 88
e 53 56
e 53 67
e 53 83
e 53 92
e 53 95
e 53 97
e 54 55
e 54 60
e 54 67
e 54 70
e 54 79
e 54 88
e 54 91
e 54 92
e 55 63
e 55 65
e 55 70
e 55 72
e 55 80
e 55 81
e 55 86
e 55 90
e 55 93
e 55 94
e 55 95
e 55 98
e 56 58
e 56 62
e 56 64
e 56 66
e 56 75
e 56 78
e 56 80
e 56 81
e 56 83
e 56 92
e 56 94
e 57 63
e 57 65
e 57 71
e 57 78
e 57 89
e 57 99
e 58 61
e 58 72
e 58 79
e 58 87
e 58 88
e 58 93
e 59 60
e 59 62
e 59 65
e 59 69
e 59 71
e 59 72
e 59 75
e 59 84
e 59 85
e 59 98
e 60 67
e 60 73
e 60 76
e 60 83
e 60 85
e 60 86
e 60 94
e 61 65
e 61 72
e 61 74
e 61 93
e 61 98
e 61 100
e 62 73
e 62 74
e 62 95
e 62 99
e 63 64
e 63 67
e 63 73
e 63 83
e 64 65
e 64 72
e 64 73
e 64 86
e 64 88
e 64 89
e 64 90
e 65 67
e 65 69
e 65 75
e 65 81
e 65 82
e 65 88
e 65 94
e 65 96
e 65 100
e 66 82
e 66 86
e 66 91
e 66 93
e 67 70
e 67 73
e 67 79
e 67 85
e 68 73
e 68 80
e 68 84
e 68 91
e 68 97
e 69 70
e 69 74
e 69 80
e 69 81
e 69 90
e 69 94
e 69 100
e 70 89
e 70 97
e 70 99
e 70 100
e 71 74
e 71 78
e 71 85
e 71 100
e 72 83
e 72 94
e 73 77
e 73 84
e 73 92
e 73 94
e 73 96
e 73 99
e 74 75
e 74 76
e 74 78
e 74 82
e 74 95
e 75 77
e 75 78
e 75 88
e 75 95
e 76 77
e 76 82
e 76 87
e 77 81
e 77 83
e 77 95
e 77 97
e 78 82
e 78 83
e 78 85
e 78 95
e 79 84
e 79 88
e 79 90
e 79 93
e 79 100
e 80 81
e 80 85
e 80 89
e 80 97
e 81 83
e 82 91
e 82 93
e 82 94
e 82 95
e 82 97
e 83 95
e 84 93
e 84 94
e 84 95
e 84 98
e 85 92
e 85 94
e 85 96
e 85 97
e 85 98
e 86 93
e 86 100
e 87 88
e 87 91
e 87 99
e 88 90
e 88 95
e 89 98
e 90 93
e 92 93
e 92 95
e 92 96
e 93 97
e 93 99
e 93 100
e 94 97
e 94 98
e 96 99
